unknown
(model
; cardinality of BoundSet is 3
(declare-sort BoundSet 0)
; rep: @uc_BoundSet_0
; rep: @uc_BoundSet_1
; rep: @uc_BoundSet_2
; cardinality of UnboundSet is 1
(declare-sort UnboundSet 0)
(declare-fun groundTerm_4 () UnboundSet)
(define-fun DiedPrematurelyFrom ((BOUND_VARIABLE_426 BoundSet) (BOUND_VARIABLE_427 BoundSet)) Bool true)
(define-fun OccurredIn ((BOUND_VARIABLE_426 BoundSet) (BOUND_VARIABLE_427 BoundSet)) Bool true)
(define-fun AccountsForPercentage ((BOUND_VARIABLE_426 BoundSet) (BOUND_VARIABLE_427 BoundSet)) Bool true)
(define-fun IsMajorCauseOf ((BOUND_VARIABLE_426 BoundSet) (BOUND_VARIABLE_427 BoundSet)) Bool false)
(define-fun OccursWorldwide ((BOUND_VARIABLE_426 BoundSet) (BOUND_VARIABLE_427 BoundSet)) Bool false)
)
sat
(model
; cardinality of BoundSet is 1
(declare-sort BoundSet 0)
; rep: @uc_BoundSet_0
; cardinality of UnboundSet is 1
(declare-sort UnboundSet 0)
(declare-fun groundTerm_6 () UnboundSet)
(define-fun DiedPrematurelyFrom ((BOUND_VARIABLE_482 BoundSet) (BOUND_VARIABLE_483 BoundSet)) Bool true)
(define-fun OccurredIn ((BOUND_VARIABLE_482 BoundSet) (BOUND_VARIABLE_483 BoundSet)) Bool true)
(define-fun AccountsForPercentage ((BOUND_VARIABLE_482 BoundSet) (BOUND_VARIABLE_483 BoundSet)) Bool true)
(define-fun IsMajorCauseOf ((BOUND_VARIABLE_482 BoundSet) (BOUND_VARIABLE_483 BoundSet)) Bool false)
(define-fun OccursWorldwide ((BOUND_VARIABLE_482 BoundSet) (BOUND_VARIABLE_483 BoundSet)) Bool true)
)
